Example_III/other_models/75/model_75_Log_80_cores.log

Gurobi 9.0.2 (linux64) logging started Mon Sep 14 06:52:29 2020

Changed value of parameter LogFile to model_75_Log_80_cores.log
   Prev:   Default: 
Changed value of parameter Threads to 80
   Prev: 0  Min: 0  Max: 1024  Default: 0
Gurobi Optimizer version 9.0.2 build v9.0.2rc0 (linux64)
Optimize a model with 10754 rows, 38880 columns and 175092 nonzeros
Model fingerprint: 0xdc5012c7
Variable types: 0 continuous, 38880 integer (38880 binary)
Coefficient statistics:
  Matrix range     [1e+00, 6e+01]
  Objective range  [1e+00, 1e+00]
  Bounds range     [1e+00, 1e+00]
  RHS range        [1e+00, 3e+02]
Presolve removed 742 rows and 1732 columns
Presolve time: 0.32s
Presolved: 10012 rows, 37148 columns, 161603 nonzeros
Variable types: 0 continuous, 37148 integer (37148 binary)

Deterministic concurrent LP optimizer: primal and dual simplex
Showing first log only...

Concurrent spin time: 0.03s

Solved with primal simplex

Root relaxation: objective 1.000000e+00, 3476 iterations, 0.14 seconds

    Nodes    |    Current Node    |     Objective Bounds      |     Work
 Expl Unexpl |  Obj  Depth IntInf | Incumbent    BestBd   Gap | It/Node Time

     0     0    1.00000    0  285          -    1.00000      -     -    2s
     0     0    1.00000    0  378          -    1.00000      -     -    3s
     0     0    1.00000    0  358          -    1.00000      -     -    3s
     0     0    1.00000    0  310          -    1.00000      -     -    4s
     0     0    1.00000    0  271          -    1.00000      -     -    4s
     0     0    1.00000    0  178          -    1.00000      -     -    6s
     0     0    1.00000    0  218          -    1.00000      -     -    6s
     0     0    1.00000    0  189          -    1.00000      -     -    7s
     0     0    1.00000    0  244          -    1.00000      -     -    7s
     0     0    1.00000    0  243          -    1.00000      -     -    8s
     0     0    1.00000    0  151          -    1.00000      -     -    8s
     0     2    1.00000    0  151          -    1.00000      -     -   11s
    78     2    1.00000   20  270          -    1.00000      -  1780   15s
   253    19    1.00000   34  469          -    1.00000      -  2145   20s
   512    18    1.00000   49  335          -    1.00000      -  2079   25s
   591     6 infeasible   55               -    1.00000      -  2063   30s
  2762  4816    1.00000   90  224          -    1.00000      -   490   35s
  5658  4817    1.00000  109  151          -    1.00000      -   268   40s
  5665  4822    1.33095  123  176          -    1.00000      -   268   46s
  5670  4825    1.00000   93  168          -    1.00000      -   268   50s
  5675  4828    1.00000   91   80          -    1.00000      -   268   57s
  5677  4830    1.00000   85   73          -    1.00000      -   267   61s

Cutting planes:
  Gomory: 19
  Cover: 139
  Clique: 1
  MIR: 15
  StrongCG: 8
  Flow cover: 62
  Inf proof: 1
  Zero half: 22
  RLT: 5

Explored 5682 nodes (1982696 simplex iterations) in 63.11 seconds
Thread count was 80 (of 80 available processors)

Solution count 0

Model is infeasible
Best objective -, best bound -, gap -
